p cnf 200 1110
-101 29 0
-101 -59 0
-101 -45 0
-101 79 0
-101 15 0
-101 -62 0
-101 43 0
-101 -30 0
-101 28 0
-101 -63 0
101 -29 59 45 -79 -15 62 -43 30 -28 63 0
-102 -86 0
-102 -14 0
-102 -52 0
-102 -22 0
-102 -19 0
-102 -23 0
-102 38 0
-102 85 0
-102 -34 0
-102 35 0
102 86 14 52 22 19 23 -38 -85 34 -35 0
-103 -6 0
-103 -38 0
-103 -45 0
-103 36 0
-103 92 0
-103 -63 0
-103 -8 0
-103 43 0
-103 -64 0
-103 18 0
103 6 38 45 -36 -92 63 8 -43 64 -18 0
-104 56 0
-104 -20 0
-104 -46 0
-104 23 0
-104 30 0
-104 -74 0
-104 -21 0
-104 -83 0
-104 -90 0
-104 69 0
104 -56 20 46 -23 -30 74 21 83 90 -69 0
-105 -62 0
-105 -88 0
-105 -54 0
-105 -100 0
-105 -19 0
-105 61 0
-105 -22 0
-105 47 0
-105 -50 0
-105 32 0
105 62 88 54 100 19 -61 22 -47 50 -32 0
-106 -3 0
-106 27 0
-106 -21 0
-106 37 0
-106 -34 0
-106 -2 0
-106 1 0
-106 -35 0
-106 64 0
-106 90 0
106 3 -27 21 -37 34 2 -1 35 -64 -90 0
-107 57 0
-107 -71 0
-107 13 0
-107 3 0
-107 22 0
-107 -58 0
-107 -51 0
-107 -19 0
-107 42 0
-107 -11 0
107 -57 71 -13 -3 -22 58 51 19 -42 11 0
-108 65 0
-108 -51 0
-108 -66 0
-108 -44 0
-108 -94 0
-108 60 0
-108 86 0
-108 8 0
-108 -30 0
-108 -72 0
108 -65 51 66 44 94 -60 -86 -8 30 72 0
-109 21 0
-109 68 0
-109 -37 0
-109 97 0
-109 -91 0
-109 -47 0
-109 48 0
-109 -14 0
-109 -41 0
-109 -3 0
109 -21 -68 37 -97 91 47 -48 14 41 3 0
-110 33 0
-110 43 0
-110 -25 0
-110 -40 0
-110 -15 0
-110 55 0
-110 -48 0
-110 45 0
-110 49 0
-110 53 0
110 -33 -43 25 40 15 -55 48 -45 -49 -53 0
101 102 103 104 105 106 107 108 109 110 0
-111 33 0
-111 46 0
-111 -90 0
-111 -1 0
-111 -73 0
-111 -23 0
-111 98 0
-111 91 0
-111 -34 0
-111 -53 0
111 -33 -46 90 1 73 23 -98 -91 34 53 0
-112 -85 0
-112 -83 0
-112 93 0
-112 -13 0
-112 57 0
-112 -67 0
-112 -41 0
-112 -36 0
-112 62 0
-112 -63 0
112 85 83 -93 13 -57 67 41 36 -62 63 0
-113 25 0
-113 -10 0
-113 -5 0
-113 93 0
-113 -22 0
-113 -42 0
-113 58 0
-113 23 0
-113 -24 0
-113 81 0
113 -25 10 5 -93 22 42 -58 -23 24 -81 0
-114 -20 0
-114 73 0
-114 -2 0
-114 89 0
-114 77 0
-114 -74 0
-114 -100 0
-114 67 0
-114 45 0
-114 17 0
114 20 -73 2 -89 -77 74 100 -67 -45 -17 0
-115 -90 0
-115 95 0
-115 38 0
-115 -13 0
-115 -56 0
-115 -30 0
-115 14 0
-115 39 0
-115 97 0
-115 -91 0
115 90 -95 -38 13 56 30 -14 -39 -97 91 0
-116 -73 0
-116 -28 0
-116 -53 0
-116 36 0
-116 66 0
-116 -54 0
-116 26 0
-116 -27 0
-116 -11 0
-116 -18 0
116 73 28 53 -36 -66 54 -26 27 11 18 0
-117 80 0
-117 96 0
-117 40 0
-117 28 0
-117 -18 0
-117 11 0
-117 -90 0
-117 -8 0
-117 94 0
-117 -84 0
117 -80 -96 -40 -28 18 -11 90 8 -94 84 0
-118 -33 0
-118 -68 0
-118 -45 0
-118 56 0
-118 -35 0
-118 -13 0
-118 -53 0
-118 -58 0
-118 -100 0
-118 -65 0
118 33 68 45 -56 35 13 53 58 100 65 0
-119 -16 0
-119 -65 0
-119 -82 0
-119 67 0
-119 -21 0
-119 -62 0
-119 100 0
-119 76 0
-119 -19 0
-119 24 0
119 16 65 82 -67 21 62 -100 -76 19 -24 0
-120 -93 0
-120 -22 0
-120 83 0
-120 98 0
-120 36 0
-120 -69 0
-120 -16 0
-120 29 0
-120 -58 0
-120 7 0
120 93 22 -83 -98 -36 69 16 -29 58 -7 0
111 112 113 114 115 116 117 118 119 120 0
-121 86 0
-121 -61 0
-121 -25 0
-121 -57 0
-121 89 0
-121 83 0
-121 -23 0
-121 98 0
-121 -80 0
-121 -97 0
121 -86 61 25 57 -89 -83 23 -98 80 97 0
-122 -73 0
-122 96 0
-122 11 0
-122 -85 0
-122 -45 0
-122 -3 0
-122 89 0
-122 -74 0
-122 17 0
-122 22 0
122 73 -96 -11 85 45 3 -89 74 -17 -22 0
-123 48 0
-123 -73 0
-123 -8 0
-123 -65 0
-123 -37 0
-123 2 0
-123 80 0
-123 -78 0
-123 26 0
-123 34 0
123 -48 73 8 65 37 -2 -80 78 -26 -34 0
-124 49 0
-124 97 0
-124 -22 0
-124 -73 0
-124 25 0
-124 -29 0
-124 -26 0
-124 23 0
-124 28 0
-124 -46 0
124 -49 -97 22 73 -25 29 26 -23 -28 46 0
-125 -47 0
-125 24 0
-125 -54 0
-125 -7 0
-125 80 0
-125 50 0
-125 -46 0
-125 31 0
-125 26 0
-125 67 0
125 47 -24 54 7 -80 -50 46 -31 -26 -67 0
-126 -50 0
-126 -82 0
-126 36 0
-126 93 0
-126 -94 0
-126 74 0
-126 -90 0
-126 -63 0
-126 -100 0
-126 96 0
126 50 82 -36 -93 94 -74 90 63 100 -96 0
-127 -51 0
-127 -31 0
-127 -74 0
-127 73 0
-127 37 0
-127 -40 0
-127 85 0
-127 52 0
-127 -61 0
-127 99 0
127 51 31 74 -73 -37 40 -85 -52 61 -99 0
-128 42 0
-128 -40 0
-128 -62 0
-128 79 0
-128 33 0
-128 88 0
-128 36 0
-128 82 0
-128 -31 0
-128 56 0
128 -42 40 62 -79 -33 -88 -36 -82 31 -56 0
-129 -78 0
-129 -32 0
-129 85 0
-129 -91 0
-129 14 0
-129 -13 0
-129 -64 0
-129 5 0
-129 34 0
-129 -56 0
129 78 32 -85 91 -14 13 64 -5 -34 56 0
-130 16 0
-130 -99 0
-130 -66 0
-130 -96 0
-130 12 0
-130 -84 0
-130 34 0
-130 -43 0
-130 -38 0
-130 31 0
130 -16 99 66 96 -12 84 -34 43 38 -31 0
121 122 123 124 125 126 127 128 129 130 0
-131 100 0
-131 -53 0
-131 93 0
-131 14 0
-131 -27 0
-131 -78 0
-131 -21 0
-131 76 0
-131 91 0
-131 -9 0
131 -100 53 -93 -14 27 78 21 -76 -91 9 0
-132 -1 0
-132 31 0
-132 -49 0
-132 24 0
-132 98 0
-132 -58 0
-132 -29 0
-132 -94 0
-132 -64 0
-132 72 0
132 1 -31 49 -24 -98 58 29 94 64 -72 0
-133 42 0
-133 18 0
-133 77 0
-133 -8 0
-133 -92 0
-133 -44 0
-133 -13 0
-133 -90 0
-133 10 0
-133 -20 0
133 -42 -18 -77 8 92 44 13 90 -10 20 0
-134 -5 0
-134 -45 0
-134 58 0
-134 96 0
-134 -50 0
-134 8 0
-134 -81 0
-134 46 0
-134 20 0
-134 -95 0
134 5 45 -58 -96 50 -8 81 -46 -20 95 0
-135 -54 0
-135 -84 0
-135 -94 0
-135 -8 0
-135 -82 0
-135 -10 0
-135 30 0
-135 5 0
-135 78 0
-135 -9 0
135 54 84 94 8 82 10 -30 -5 -78 9 0
-136 2 0
-136 -34 0
-136 22 0
-136 47 0
-136 -7 0
-136 -69 0
-136 89 0
-136 -99 0
-136 -82 0
-136 -92 0
136 -2 34 -22 -47 7 69 -89 99 82 92 0
-137 -80 0
-137 15 0
-137 39 0
-137 -58 0
-137 -90 0
-137 26 0
-137 -4 0
-137 31 0
-137 35 0
-137 -37 0
137 80 -15 -39 58 90 -26 4 -31 -35 37 0
-138 -5 0
-138 -7 0
-138 -74 0
-138 -8 0
-138 -71 0
-138 39 0
-138 45 0
-138 100 0
-138 66 0
-138 -37 0
138 5 7 74 8 71 -39 -45 -100 -66 37 0
-139 -29 0
-139 83 0
-139 8 0
-139 63 0
-139 96 0
-139 28 0
-139 -70 0
-139 -24 0
-139 -85 0
-139 10 0
139 29 -83 -8 -63 -96 -28 70 24 85 -10 0
-140 -15 0
-140 -63 0
-140 -12 0
-140 -95 0
-140 -46 0
-140 -61 0
-140 -89 0
-140 4 0
-140 -67 0
-140 64 0
140 15 63 12 95 46 61 89 -4 67 -64 0
131 132 133 134 135 136 137 138 139 140 0
-141 34 0
-141 -11 0
-141 1 0
-141 -100 0
-141 -64 0
-141 -33 0
-141 -91 0
-141 -32 0
-141 -29 0
-141 92 0
141 -34 11 -1 100 64 33 91 32 29 -92 0
-142 83 0
-142 -97 0
-142 -42 0
-142 11 0
-142 -6 0
-142 7 0
-142 37 0
-142 26 0
-142 -13 0
-142 -64 0
142 -83 97 42 -11 6 -7 -37 -26 13 64 0
-143 33 0
-143 18 0
-143 -27 0
-143 -17 0
-143 23 0
-143 68 0
-143 -63 0
-143 8 0
-143 28 0
-143 7 0
143 -33 -18 27 17 -23 -68 63 -8 -28 -7 0
-144 -80 0
-144 58 0
-144 -23 0
-144 40 0
-144 -93 0
-144 -84 0
-144 -81 0
-144 -66 0
-144 44 0
-144 -71 0
144 80 -58 23 -40 93 84 81 66 -44 71 0
-145 -8 0
-145 -12 0
-145 1 0
-145 2 0
-145 95 0
-145 -80 0
-145 -38 0
-145 -84 0
-145 54 0
-145 -19 0
145 8 12 -1 -2 -95 80 38 84 -54 19 0
-146 -41 0
-146 -28 0
-146 7 0
-146 -13 0
-146 99 0
-146 31 0
-146 49 0
-146 -55 0
-146 68 0
-146 6 0
146 41 28 -7 13 -99 -31 -49 55 -68 -6 0
-147 -90 0
-147 33 0
-147 -34 0
-147 -74 0
-147 -66 0
-147 -64 0
-147 -61 0
-147 -81 0
-147 -1 0
-147 -51 0
147 90 -33 34 74 66 64 61 81 1 51 0
-148 94 0
-148 40 0
-148 30 0
-148 -59 0
-148 -66 0
-148 56 0
-148 -78 0
-148 -72 0
-148 -10 0
-148 -23 0
148 -94 -40 -30 59 66 -56 78 72 10 23 0
-149 44 0
-149 -39 0
-149 -54 0
-149 26 0
-149 24 0
-149 -91 0
-149 -51 0
-149 -22 0
-149 -71 0
-149 -98 0
149 -44 39 54 -26 -24 91 51 22 71 98 0
-150 -23 0
-150 73 0
-150 -74 0
-150 -11 0
-150 -13 0
-150 75 0
-150 64 0
-150 84 0
-150 -55 0
-150 91 0
150 23 -73 74 11 13 -75 -64 -84 55 -91 0
141 142 143 144 145 146 147 148 149 150 0
-151 81 0
-151 4 0
-151 12 0
-151 -88 0
-151 89 0
-151 45 0
-151 94 0
-151 -92 0
-151 44 0
-151 72 0
151 -81 -4 -12 88 -89 -45 -94 92 -44 -72 0
-152 -11 0
-152 54 0
-152 90 0
-152 -52 0
-152 -3 0
-152 65 0
-152 -47 0
-152 72 0
-152 75 0
-152 25 0
152 11 -54 -90 52 3 -65 47 -72 -75 -25 0
-153 -4 0
-153 84 0
-153 -37 0
-153 7 0
-153 -91 0
-153 29 0
-153 9 0
-153 2 0
-153 57 0
-153 18 0
153 4 -84 37 -7 91 -29 -9 -2 -57 -18 0
-154 43 0
-154 70 0
-154 74 0
-154 29 0
-154 65 0
-154 -56 0
-154 -49 0
-154 30 0
-154 -88 0
-154 39 0
154 -43 -70 -74 -29 -65 56 49 -30 88 -39 0
-155 -45 0
-155 -72 0
-155 44 0
-155 46 0
-155 68 0
-155 52 0
-155 10 0
-155 13 0
-155 -69 0
-155 -31 0
155 45 72 -44 -46 -68 -52 -10 -13 69 31 0
-156 27 0
-156 -83 0
-156 -35 0
-156 -57 0
-156 -59 0
-156 -47 0
-156 10 0
-156 98 0
-156 -20 0
-156 37 0
156 -27 83 35 57 59 47 -10 -98 20 -37 0
-157 99 0
-157 -86 0
-157 43 0
-157 55 0
-157 12 0
-157 10 0
-157 39 0
-157 18 0
-157 -47 0
-157 -34 0
157 -99 86 -43 -55 -12 -10 -39 -18 47 34 0
-158 -91 0
-158 -23 0
-158 -38 0
-158 -78 0
-158 -10 0
-158 -16 0
-158 -89 0
-158 8 0
-158 66 0
-158 -71 0
158 91 23 38 78 10 16 89 -8 -66 71 0
-159 -45 0
-159 -10 0
-159 51 0
-159 67 0
-159 49 0
-159 25 0
-159 58 0
-159 -96 0
-159 -20 0
-159 -2 0
159 45 10 -51 -67 -49 -25 -58 96 20 2 0
-160 44 0
-160 49 0
-160 -83 0
-160 5 0
-160 35 0
-160 30 0
-160 -14 0
-160 54 0
-160 -42 0
-160 85 0
160 -44 -49 83 -5 -35 -30 14 -54 42 -85 0
151 152 153 154 155 156 157 158 159 160 0
-161 6 0
-161 14 0
-161 -1 0
-161 -72 0
-161 26 0
-161 86 0
-161 32 0
-161 18 0
-161 4 0
-161 -2 0
161 -6 -14 1 72 -26 -86 -32 -18 -4 2 0
-162 18 0
-162 -96 0
-162 -76 0
-162 73 0
-162 -15 0
-162 -25 0
-162 -93 0
-162 -54 0
-162 -62 0
-162 4 0
162 -18 96 76 -73 15 25 93 54 62 -4 0
-163 47 0
-163 61 0
-163 100 0
-163 -73 0
-163 62 0
-163 70 0
-163 -54 0
-163 63 0
-163 -13 0
-163 23 0
163 -47 -61 -100 73 -62 -70 54 -63 13 -23 0
-164 66 0
-164 25 0
-164 85 0
-164 79 0
-164 22 0
-164 -59 0
-164 58 0
-164 6 0
-164 -93 0
-164 -36 0
164 -66 -25 -85 -79 -22 59 -58 -6 93 36 0
-165 -54 0
-165 -57 0
-165 -63 0
-165 -36 0
-165 -62 0
-165 25 0
-165 -26 0
-165 -88 0
-165 78 0
-165 12 0
165 54 57 63 36 62 -25 26 88 -78 -12 0
-166 -65 0
-166 34 0
-166 66 0
-166 93 0
-166 22 0
-166 -56 0
-166 4 0
-166 39 0
-166 45 0
-166 -10 0
166 65 -34 -66 -93 -22 56 -4 -39 -45 10 0
-167 -27 0
-167 -82 0
-167 44 0
-167 94 0
-167 -59 0
-167 -7 0
-167 -71 0
-167 48 0
-167 -64 0
-167 2 0
167 27 82 -44 -94 59 7 71 -48 64 -2 0
-168 -87 0
-168 -32 0
-168 42 0
-168 -91 0
-168 -61 0
-168 -41 0
-168 27 0
-168 20 0
-168 -73 0
-168 -34 0
168 87 32 -42 91 61 41 -27 -20 73 34 0
-169 90 0
-169 59 0
-169 -80 0
-169 38 0
-169 11 0
-169 9 0
-169 -53 0
-169 -73 0
-169 58 0
-169 -7 0
169 -90 -59 80 -38 -11 -9 53 73 -58 7 0
-170 -9 0
-170 78 0
-170 75 0
-170 49 0
-170 36 0
-170 56 0
-170 -52 0
-170 71 0
-170 -61 0
-170 63 0
170 9 -78 -75 -49 -36 -56 52 -71 61 -63 0
161 162 163 164 165 166 167 168 169 170 0
-171 53 0
-171 79 0
-171 41 0
-171 -6 0
-171 -61 0
-171 27 0
-171 83 0
-171 -84 0
-171 91 0
-171 76 0
171 -53 -79 -41 6 61 -27 -83 84 -91 -76 0
-172 -7 0
-172 56 0
-172 -31 0
-172 90 0
-172 -70 0
-172 -21 0
-172 13 0
-172 -97 0
-172 -38 0
-172 -14 0
172 7 -56 31 -90 70 21 -13 97 38 14 0
-173 -65 0
-173 37 0
-173 70 0
-173 11 0
-173 -54 0
-173 7 0
-173 48 0
-173 99 0
-173 -16 0
-173 15 0
173 65 -37 -70 -11 54 -7 -48 -99 16 -15 0
-174 -20 0
-174 34 0
-174 71 0
-174 89 0
-174 -16 0
-174 58 0
-174 87 0
-174 46 0
-174 -83 0
-174 -99 0
174 20 -34 -71 -89 16 -58 -87 -46 83 99 0
-175 -92 0
-175 46 0
-175 -35 0
-175 -45 0
-175 13 0
-175 -25 0
-175 77 0
-175 94 0
-175 75 0
-175 -52 0
175 92 -46 35 45 -13 25 -77 -94 -75 52 0
-176 -10 0
-176 -54 0
-176 96 0
-176 -70 0
-176 -65 0
-176 5 0
-176 -94 0
-176 29 0
-176 -61 0
-176 89 0
176 10 54 -96 70 65 -5 94 -29 61 -89 0
-177 -27 0
-177 -75 0
-177 -57 0
-177 58 0
-177 88 0
-177 -60 0
-177 -48 0
-177 -39 0
-177 -19 0
-177 24 0
177 27 75 57 -58 -88 60 48 39 19 -24 0
-178 -100 0
-178 -88 0
-178 -55 0
-178 59 0
-178 -92 0
-178 -63 0
-178 81 0
-178 -19 0
-178 48 0
-178 -41 0
178 100 88 55 -59 92 63 -81 19 -48 41 0
-179 -30 0
-179 -94 0
-179 -26 0
-179 -100 0
-179 -70 0
-179 98 0
-179 -92 0
-179 -76 0
-179 -88 0
-179 -14 0
179 30 94 26 100 70 -98 92 76 88 14 0
-180 62 0
-180 -28 0
-180 12 0
-180 40 0
-180 -91 0
-180 16 0
-180 71 0
-180 54 0
-180 -96 0
-180 -78 0
180 -62 28 -12 -40 91 -16 -71 -54 96 78 0
171 172 173 174 175 176 177 178 179 180 0
-181 -8 0
-181 70 0
-181 -58 0
-181 92 0
-181 -63 0
-181 10 0
-181 -49 0
-181 -64 0
-181 91 0
-181 -78 0
181 8 -70 58 -92 63 -10 49 64 -91 78 0
-182 -56 0
-182 70 0
-182 -79 0
-182 52 0
-182 88 0
-182 -1 0
-182 -43 0
-182 -73 0
-182 -31 0
-182 53 0
182 56 -70 79 -52 -88 1 43 73 31 -53 0
-183 -30 0
-183 94 0
-183 -71 0
-183 64 0
-183 -41 0
-183 38 0
-183 -72 0
-183 -47 0
-183 55 0
-183 -6 0
183 30 -94 71 -64 41 -38 72 47 -55 6 0
-184 17 0
-184 -51 0
-184 -60 0
-184 27 0
-184 56 0
-184 -14 0
-184 -8 0
-184 16 0
-184 -28 0
-184 41 0
184 -17 51 60 -27 -56 14 8 -16 28 -41 0
-185 -7 0
-185 90 0
-185 -91 0
-185 -22 0
-185 -19 0
-185 81 0
-185 13 0
-185 5 0
-185 87 0
-185 -18 0
185 7 -90 91 22 19 -81 -13 -5 -87 18 0
-186 -89 0
-186 32 0
-186 -48 0
-186 41 0
-186 -97 0
-186 16 0
-186 28 0
-186 -26 0
-186 31 0
-186 -19 0
186 89 -32 48 -41 97 -16 -28 26 -31 19 0
-187 56 0
-187 77 0
-187 25 0
-187 86 0
-187 -99 0
-187 32 0
-187 6 0
-187 14 0
-187 3 0
-187 65 0
187 -56 -77 -25 -86 99 -32 -6 -14 -3 -65 0
-188 15 0
-188 52 0
-188 80 0
-188 -22 0
-188 14 0
-188 -95 0
-188 90 0
-188 -38 0
-188 67 0
-188 -62 0
188 -15 -52 -80 22 -14 95 -90 38 -67 62 0
-189 -93 0
-189 -71 0
-189 -23 0
-189 44 0
-189 -52 0
-189 -36 0
-189 19 0
-189 6 0
-189 -13 0
-189 90 0
189 93 71 23 -44 52 36 -19 -6 13 -90 0
-190 -3 0
-190 9 0
-190 -48 0
-190 -56 0
-190 61 0
-190 -2 0
-190 69 0
-190 16 0
-190 49 0
-190 -39 0
190 3 -9 48 56 -61 2 -69 -16 -49 39 0
181 182 183 184 185 186 187 188 189 190 0
-191 -96 0
-191 -54 0
-191 -31 0
-191 8 0
-191 77 0
-191 -81 0
-191 83 0
-191 -39 0
-191 -89 0
-191 -88 0
191 96 54 31 -8 -77 81 -83 39 89 88 0
-192 24 0
-192 97 0
-192 -34 0
-192 62 0
-192 -48 0
-192 83 0
-192 -56 0
-192 49 0
-192 57 0
-192 -79 0
192 -24 -97 34 -62 48 -83 56 -49 -57 79 0
-193 -53 0
-193 20 0
-193 -59 0
-193 -26 0
-193 97 0
-193 -88 0
-193 -44 0
-193 -25 0
-193 -27 0
-193 -54 0
193 53 -20 59 26 -97 88 44 25 27 54 0
-194 -79 0
-194 70 0
-194 10 0
-194 -12 0
-194 23 0
-194 -5 0
-194 29 0
-194 -45 0
-194 42 0
-194 9 0
194 79 -70 -10 12 -23 5 -29 45 -42 -9 0
-195 13 0
-195 79 0
-195 81 0
-195 -55 0
-195 -64 0
-195 -45 0
-195 20 0
-195 51 0
-195 88 0
-195 -24 0
195 -13 -79 -81 55 64 45 -20 -51 -88 24 0
-196 -28 0
-196 95 0
-196 64 0
-196 -4 0
-196 90 0
-196 97 0
-196 34 0
-196 -6 0
-196 7 0
-196 -22 0
196 28 -95 -64 4 -90 -97 -34 6 -7 22 0
-197 -37 0
-197 28 0
-197 35 0
-197 19 0
-197 99 0
-197 -18 0
-197 -4 0
-197 -44 0
-197 -40 0
-197 -100 0
197 37 -28 -35 -19 -99 18 4 44 40 100 0
-198 -10 0
-198 -5 0
-198 -87 0
-198 83 0
-198 2 0
-198 -6 0
-198 86 0
-198 55 0
-198 -17 0
-198 52 0
198 10 5 87 -83 -2 6 -86 -55 17 -52 0
-199 -26 0
-199 92 0
-199 -19 0
-199 13 0
-199 -97 0
-199 -79 0
-199 -98 0
-199 -10 0
-199 46 0
-199 -27 0
199 26 -92 19 -13 97 79 98 10 -46 27 0
-200 74 0
-200 -44 0
-200 -22 0
-200 -42 0
-200 20 0
-200 9 0
-200 6 0
-200 -55 0
-200 61 0
-200 41 0
200 -74 44 22 42 -20 -9 -6 55 -61 -41 0
191 192 193 194 195 196 197 198 199 200 0
